unsat
(forall ((A (_ BitVec 3))
         (B (_ BitVec 3))
         (C (_ BitVec 3))
         (D (_ BitVec 3))
         (E (_ BitVec 3))
         (F (_ BitVec 2))
         (G (_ BitVec 3))
         (H (_ BitVec 2))
         (I (_ BitVec 2))
         (J (_ BitVec 2))
         (K (_ BitVec 2))
         (L (_ BitVec 2))
         (M (_ BitVec 3))
         (N (_ BitVec 2))
         (O (_ BitVec 2))
         (P (_ BitVec 3))
         (Q (_ BitVec 3))
         (R (_ BitVec 3))
         (S (_ BitVec 3))
         (T (_ BitVec 3))
         (U (_ BitVec 3))
         (V (_ BitVec 3))
         (W (_ BitVec 3))
         (X (_ BitVec 3))
         (Y (_ BitVec 3))
         (Z (_ BitVec 3))
         (A1 (_ BitVec 3))
         (B1 (_ BitVec 8))
         (C1 (_ BitVec 2))
         (D1 (_ BitVec 3))
         (E1 (_ BitVec 2))
         (F1 (_ BitVec 3))
         (G1 (_ BitVec 3))
         (H1 (_ BitVec 2))
         (I1 (_ BitVec 3))
         (J1 (_ BitVec 2))
         (K1 (_ BitVec 3))
         (L1 (_ BitVec 3))
         (M1 (_ BitVec 3))
         (N1 (_ BitVec 3))
         (O1 (_ BitVec 3))
         (P1 (_ BitVec 3))
         (Q1 (_ BitVec 3))
         (R1 (_ BitVec 3))
         (S1 (_ BitVec 2))
         (T1 (_ BitVec 3))
         (U1 (_ BitVec 2))
         (V1 (_ BitVec 3))
         (W1 (_ BitVec 3))
         (X1 (_ BitVec 3))
         (Y1 (_ BitVec 3))
         (Z1 (_ BitVec 3))
         (A2 (_ BitVec 3))
         (B2 (_ BitVec 2))
         (C2 (_ BitVec 3))
         (D2 (_ BitVec 2))
         (E2 (_ BitVec 3))
         (F2 (_ BitVec 3))
         (G2 (_ BitVec 3))
         (H2 (_ BitVec 3))
         (I2 (_ BitVec 3))
         (J2 (_ BitVec 3))
         (K2 (_ BitVec 3))
         (L2 (_ BitVec 3))
         (M2 (_ BitVec 3))
         (N2 (_ BitVec 3)))
  (! (let ((a!1 (or (not (= ((_ extract 2 2) G) #b1)) (= E #b101)))
           (a!2 (or (not (= D #b100)) (not (= ((_ extract 0 0) E) #b1))))
           (a!3 (or (not (= I #b10)) (not (= ((_ extract 0 0) G) #b1))))
           (a!4 (or (not (= E #b010)) (not (= ((_ extract 2 2) D) #b1))))
           (a!5 (or (not (= D #b011)) (not (= ((_ extract 1 1) F) #b1))))
           (a!6 (or (not (= F #b10)) (not (= ((_ extract 1 1) D) #b1))))
           (a!7 (or (= D #b011)
                    (= D #b010)
                    (not (= E #b010))
                    (not (= ((_ extract 1 1) I) #b1))))
           (a!8 (or (= M #b001)
                    (= G #b010)
                    (= G #b011)
                    (= G #b001)
                    (= G #b000)
                    (not (= ((_ extract 1 1) E) #b1))))
           (a!9 (or (= C #b101)
                    (= C #b001)
                    (= C #b000)
                    (not (= E #b101))
                    ((_ bit2bool 1) C)
                    (not (= ((_ extract 1 1) B) #b1))))
           (a!10 (or (not (= A #b010))
                     (= ((_ extract 0 0) J) #b1)
                     (not (= ((_ extract 2 2) G) #b1))
                     (= ((_ extract 1 1) C) #b1))))
     (let ((a!11 (and (or (not (= I #b10)) (not (= J #b10)))
                      a!1
                      (or (not (= L #b10)) (= G #b101))
                      (or (not (= I #b10)) (not (= G #b000)))
                      (or (not (= G #b010)) (= ((_ extract 0 0) I) #b1))
                      (or (not (= F #b10)) (= ((_ extract 0 0) D) #b1))
                      a!2
                      a!3
                      (or ((_ bit2bool 1) A)
                          (not ((_ bit2bool 2) A))
                          (= C #b101))
                      (or (not ((_ bit2bool 1) E)) (not (= D #b100)))
                      (or (= D #b100) (not (= K #b10)))
                      (or ((_ bit2bool 1) C)
                          (not (= B #b010))
                          (not (= E #b100))
                          (= ((_ extract 0 0) O) #b1))
                      a!4
                      (or (= E #b100) (not (= D #b101)))
                      (or ((_ bit2bool 2) D) (not (= F #b10)) (= D #b011))
                      (or (not (= A #b101))
                          (= G #b010)
                          (= G #b011)
                          (= G #b001)
                          (= G #b000))
                      (or (not (= D #b100)) (= ((_ extract 2 2) E) #b1))
                      (or (not (= O #b10)) (= B #b100))
                      a!5
                      a!6
                      (or (not (= M #b010))
                          (not ((_ bit2bool 2) B))
                          (= ((_ extract 1 1) E) #b1))
                      a!7
                      a!8
                      (or (= G #b100)
                          (= G #b101)
                          (= G #b010)
                          (= G #b011)
                          (= G #b001)
                          (= G #b000))
                      (or (not (= I #b10)) (not (= F #b10)))
                      (or (= C #b100) (not (= B #b100)))
                      (or (= E #b011) (= E #b010) (not (= M #b010)))
                      (or (not (= N #b10)) (= A #b101))
                      (or (= B #b101) (not (= H #b10)))
                      (or ((_ bit2bool 1) E)
                          (not ((_ bit2bool 2) E))
                          (= M #b100))
                      a!9
                      (or (= C #b101)
                          (= C #b001)
                          (= C #b000)
                          ((_ bit2bool 1) C)
                          (not (= E #b100)))
                      (or (= M #b101) (not (= C #b101)))
                      (or (= L #b01) (not (= G #b011)))
                      (or (= C #b100) (not (= B #b101)))
                      (or (= M #b101)
                          (= M #b011)
                          (= M #b001)
                          (= M #b100)
                          (= E #b011)
                          (= E #b010)
                          (= M #b000))
                      (or (= M #b101) (not (= C #b100)))
                      a!10
                      (or (not (= J #b10)) (= A #b100)))))
       (= (INV!slice!1 A
                       B
                       C
                       D
                       E
                       F
                       G
                       H
                       I
                       J
                       K
                       L
                       M
                       N
                       O
                       P
                       Q
                       R
                       S
                       T
                       U
                       V
                       W
                       X
                       Y
                       Z
                       A1
                       B1
                       C1
                       D1
                       E1
                       F1
                       G1
                       H1
                       I1
                       J1
                       K1
                       L1
                       M1
                       N1
                       O1
                       P1
                       Q1
                       R1
                       S1
                       T1
                       U1
                       V1
                       W1
                       X1
                       Y1
                       Z1
                       A2
                       B2
                       C2
                       D2
                       E2
                       F2
                       G2
                       H2
                       I2
                       J2
                       K2
                       L2
                       M2
                       N2)
          a!11)))
     :weight 0))
